; Start decls (1)
(declare-fun words_ackermann!0 () (_ BitVec 32))
; End decls
; Start constraints (4)
(assert (bvslt #x0000012c words_ackermann!0))
(assert (bvslt words_ackermann!0 #x000001f4))
(assert (let ((a!1 (fp.lt (fp.add roundNearestTiesToEven
                          (fp.div roundNearestTiesToEven
                                  ((_ to_fp 11 53)
                                    roundNearestTiesToEven
                                    words_ackermann!0)
                                  ((_ to_fp 11 53) #x4032000000000000))
                          (fp.div roundNearestTiesToEven
                                  ((_ to_fp 11 53) #x40c6760000000000)
                                  ((_ to_fp 11 53)
                                    roundNearestTiesToEven
                                    words_ackermann!0)))
                  ((_ to_fp 11 53) #x4049800000000000))))
  (not a!1)))
(assert (let ((a!1 (fp.lt (fp.add roundNearestTiesToEven
                          (fp.div roundNearestTiesToEven
                                  ((_ to_fp 11 53)
                                    roundNearestTiesToEven
                                    words_ackermann!0)
                                  ((_ to_fp 11 53) #x4032000000000000))
                          (fp.div roundNearestTiesToEven
                                  ((_ to_fp 11 53) #x40c6760000000000)
                                  ((_ to_fp 11 53)
                                    roundNearestTiesToEven
                                    words_ackermann!0)))
                  ((_ to_fp 11 53) #x404b000000000000))))
  (not (not a!1))))
; End constraints
(check-sat)
(exit)
